tsp_instances/TSP20/instance109.tsp
NODE_COORD_SECTION
0 140 186
1 91 38
2 16 70
3 95 62
4 126 70
5 137 46
6 23 69
7 135 124
8 165 127
9 69 21
10 129 124
11 145 90
12 46 181
13 78 152
14 8 152
15 26 191
16 122 26
17 22 65
18 195 199
19 67 5
