tsp_instances/TSP20/instance109.opt.tour
TOUR_SECTION
1
14
13
16
15
3
7
18
20
10
2
4
17
6
5
12
11
8
9
19
-1